p cnf 7 37
4 5 -2 0
4 -5 -2 0
-2 -6 -3 -4 0
3 5 -2 0
3 5 2 -4 0
-3 2 7 -6 0
3 -1 6 0
-1 7 -4 5 3 -2 -6 0
-6 7 -4 0
-4 3 0
3 1 0
-6 2 0
-1 -4 -6 -5 0
-5 6 0
4 5 -2 -6 -1 3 0
-6 -1 0
3 -7 0
-1 6 -5 0
7 -1 5 4 -6 3 2 0
-4 -7 -1 5 3 -2 -6 0
2 4 -5 0
-5 -6 -1 0
1 -5 -4 0
-7 1 0
-2 3 6 1 -4 7 -5 0
2 -7 -1 6 0
7 5 -2 -3 1 0
7 1 -5 0
-7 4 3 0
5 2 -6 3 4 0
-6 -5 -3 -4 0
2 5 -6 0
3 1 6 -2 0
4 -1 -3 6 -5 0
2 6 7 0
1 6 3 7 -2 0
4 -3 0
